p cnf 962 2469
51 -695 -696 0
-51 695 0
-51 696 0
52 -51 -697 0
-52 51 0
-52 697 0
53 -698 -699 0
-53 698 0
-53 699 0
54 -53 -700 0
-54 53 0
-54 700 0
55 -701 -702 0
-55 701 0
-55 702 0
56 -703 -7 0
-56 703 0
-56 7 0
57 -56 -9 0
-57 56 0
-57 9 0
58 -704 -55 0
-58 704 0
-58 55 0
59 -705 -6 0
-59 705 0
-59 6 0
60 -59 -706 0
-60 59 0
-60 706 0
61 -707 -58 0
-61 707 0
-61 58 0
62 -708 -1 0
-62 708 0
-62 1 0
63 -62 -13 0
-63 62 0
-63 13 0
64 -709 -61 0
-64 709 0
-64 61 0
65 -710 -6 0
-65 710 0
-65 6 0
66 -65 -711 0
-66 65 0
-66 711 0
67 -712 -64 0
-67 712 0
-67 64 0
68 -17 -713 0
-68 17 0
-68 713 0
69 -68 -7 0
-69 68 0
-69 7 0
70 -714 -67 0
-70 714 0
-70 67 0
71 -18 -4 0
-71 18 0
-71 4 0
72 -71 -19 0
-72 71 0
-72 19 0
73 -715 -70 0
-73 715 0
-73 70 0
74 -20 -18 0
-74 20 0
-74 18 0
75 -74 -716 0
-75 74 0
-75 716 0
76 -717 -73 0
-76 717 0
-76 73 0
77 -718 -22 0
-77 718 0
-77 22 0
78 -77 -24 0
-78 77 0
-78 24 0
79 -719 -76 0
-79 719 0
-79 76 0
80 -720 -25 0
-80 720 0
-80 25 0
81 -80 -721 0
-81 80 0
-81 721 0
82 -722 -79 0
-82 722 0
-82 79 0
83 -723 -14 0
-83 723 0
-83 14 0
84 -83 -22 0
-84 83 0
-84 22 0
85 -724 -82 0
-85 724 0
-85 82 0
86 -725 -710 0
-86 725 0
-86 710 0
87 -86 -30 0
-87 86 0
-87 30 0
88 -726 -85 0
-88 726 0
-88 85 0
89 -31 -708 0
-89 31 0
-89 708 0
90 -89 -3 0
-90 89 0
-90 3 0
91 -727 -88 0
-91 727 0
-91 88 0
92 -17 -703 0
-92 17 0
-92 703 0
93 -92 -15 0
-93 92 0
-93 15 0
94 -728 -91 0
-94 728 0
-94 91 0
95 -31 -19 0
-95 31 0
-95 19 0
96 -95 -23 0
-96 95 0
-96 23 0
97 -729 -94 0
-97 729 0
-97 94 0
98 -32 -706 0
-98 32 0
-98 706 0
99 -98 -730 0
-99 98 0
-99 730 0
100 -731 -97 0
-100 731 0
-100 97 0
101 -34 -2 0
-101 34 0
-101 2 0
102 -101 -13 0
-102 101 0
-102 13 0
103 -732 -100 0
-103 732 0
-103 100 0
104 -733 -695 0
-104 733 0
-104 695 0
105 -104 -734 0
-105 104 0
-105 734 0
106 -735 -103 0
-106 735 0
-106 103 0
107 -736 -25 0
-107 736 0
-107 25 0
108 -107 -730 0
-108 107 0
-108 730 0
109 -737 -106 0
-109 737 0
-109 106 0
110 -36 -738 0
-110 36 0
-110 738 0
111 -110 -34 0
-111 110 0
-111 34 0
112 -739 -109 0
-112 739 0
-112 109 0
113 -740 -19 0
-113 740 0
-113 19 0
114 -113 -741 0
-114 113 0
-114 741 0
115 -742 -112 0
-115 742 0
-115 112 0
116 -743 -4 0
-116 743 0
-116 4 0
117 -116 -23 0
-117 116 0
-117 23 0
118 -744 -115 0
-118 744 0
-118 115 0
119 -12 -6 0
-119 12 0
-119 6 0
120 -119 -10 0
-120 119 0
-120 10 0
121 -745 -118 0
-121 745 0
-121 118 0
122 -39 -734 0
-122 39 0
-122 734 0
123 -122 -718 0
-123 122 0
-123 718 0
124 -746 -121 0
-124 746 0
-124 121 0
125 -21 -19 0
-125 21 0
-125 19 0
126 -125 -747 0
-126 125 0
-126 747 0
127 -748 -124 0
-127 748 0
-127 124 0
128 -41 -749 0
-128 41 0
-128 749 0
129 -128 -24 0
-129 128 0
-129 24 0
130 -750 -127 0
-130 750 0
-130 127 0
131 -751 -710 0
-131 751 0
-131 710 0
132 -131 -752 0
-132 131 0
-132 752 0
133 -753 -130 0
-133 753 0
-133 130 0
134 -754 -13 0
-134 754 0
-134 13 0
135 -134 -734 0
-135 134 0
-135 734 0
136 -755 -133 0
-136 755 0
-136 133 0
137 -20 -7 0
-137 20 0
-137 7 0
138 -137 -33 0
-138 137 0
-138 33 0
139 -756 -136 0
-139 756 0
-139 136 0
140 -43 -757 0
-140 43 0
-140 757 0
141 -140 -38 0
-141 140 0
-141 38 0
142 -758 -139 0
-142 758 0
-142 139 0
143 -7 -5 0
-143 7 0
-143 5 0
144 -143 -37 0
-144 143 0
-144 37 0
145 -759 -142 0
-145 759 0
-145 142 0
146 -83 -760 0
-146 83 0
-146 760 0
147 -761 -145 0
-147 761 0
-147 145 0
148 -43 -5 0
-148 43 0
-148 5 0
149 -148 -10 0
-149 148 0
-149 10 0
150 -762 -147 0
-150 762 0
-150 147 0
151 -763 -10 0
-151 763 0
-151 10 0
152 -151 -740 0
-152 151 0
-152 740 0
153 -764 -150 0
-153 764 0
-153 150 0
154 -42 -35 0
-154 42 0
-154 35 0
155 -154 -8 0
-155 154 0
-155 8 0
156 -765 -153 0
-156 765 0
-156 153 0
157 -766 -716 0
-157 766 0
-157 716 0
158 -157 -706 0
-158 157 0
-158 706 0
159 -767 -156 0
-159 767 0
-159 156 0
160 -46 -733 0
-160 46 0
-160 733 0
161 -160 -33 0
-161 160 0
-161 33 0
162 -768 -159 0
-162 768 0
-162 159 0
163 -769 -734 0
-163 769 0
-163 734 0
164 -163 -30 0
-164 163 0
-164 30 0
165 -770 -162 0
-165 770 0
-165 162 0
166 -47 -708 0
-166 47 0
-166 708 0
167 -166 -741 0
-167 166 0
-167 741 0
168 -771 -165 0
-168 771 0
-168 165 0
169 -43 -723 0
-169 43 0
-169 723 0
170 -169 -44 0
-170 169 0
-170 44 0
171 -772 -168 0
-171 772 0
-171 168 0
172 -766 -19 0
-172 766 0
-172 19 0
173 -172 -711 0
-173 172 0
-173 711 0
174 -773 -171 0
-174 773 0
-174 171 0
175 -774 -47 0
-175 774 0
-175 47 0
176 -175 -775 0
-176 175 0
-176 775 0
177 -776 -174 0
-177 776 0
-177 174 0
178 -49 -777 0
-178 49 0
-178 777 0
179 -178 -778 0
-179 178 0
-179 778 0
180 -779 -177 0
-180 779 0
-180 177 0
181 -780 -36 0
-181 780 0
-181 36 0
182 -181 -781 0
-182 181 0
-182 781 0
183 -782 -180 0
-183 782 0
-183 180 0
184 -716 -8 0
-184 716 0
-184 8 0
185 -184 -3 0
-185 184 0
-185 3 0
186 -783 -183 0
-186 783 0
-186 183 0
187 -47 -1 0
-187 47 0
-187 1 0
188 -187 -711 0
-188 187 0
-188 711 0
189 -784 -186 0
-189 784 0
-189 186 0
190 -14 -747 0
-190 14 0
-190 747 0
191 -190 -718 0
-191 190 0
-191 718 0
192 -785 -189 0
-192 785 0
-192 189 0
193 -37 -738 0
-193 37 0
-193 738 0
194 -193 -33 0
-194 193 0
-194 33 0
195 -786 -192 0
-195 786 0
-195 192 0
196 -42 -713 0
-196 42 0
-196 713 0
197 -196 -760 0
-197 196 0
-197 760 0
198 -787 -195 0
-198 787 0
-198 195 0
199 -736 -788 0
-199 736 0
-199 788 0
200 -199 -11 0
-200 199 0
-200 11 0
201 -789 -198 0
-201 789 0
-201 198 0
202 -738 -11 0
-202 738 0
-202 11 0
203 -202 -27 0
-203 202 0
-203 27 0
204 -790 -201 0
-204 790 0
-204 201 0
205 -718 -752 0
-205 718 0
-205 752 0
206 -205 -15 0
-206 205 0
-206 15 0
207 -791 -204 0
-207 791 0
-207 204 0
208 -12 -752 0
-208 12 0
-208 752 0
209 -208 -23 0
-209 208 0
-209 23 0
210 -792 -207 0
-210 792 0
-210 207 0
211 -777 -747 0
-211 777 0
-211 747 0
212 -211 -793 0
-212 211 0
-212 793 0
213 -794 -210 0
-213 794 0
-213 210 0
214 -31 -12 0
-214 31 0
-214 12 0
215 -214 -747 0
-215 214 0
-215 747 0
216 -795 -213 0
-216 795 0
-216 213 0
217 -29 -700 0
-217 29 0
-217 700 0
218 -217 -37 0
-218 217 0
-218 37 0
219 -796 -216 0
-219 796 0
-219 216 0
220 -754 -699 0
-220 754 0
-220 699 0
221 -220 -49 0
-221 220 0
-221 49 0
222 -797 -219 0
-222 797 0
-222 219 0
223 -26 -743 0
-223 26 0
-223 743 0
224 -223 -703 0
-224 223 0
-224 703 0
225 -798 -222 0
-225 798 0
-225 222 0
226 -766 -44 0
-226 766 0
-226 44 0
227 -226 -32 0
-227 226 0
-227 32 0
228 -799 -225 0
-228 799 0
-228 225 0
229 -131 -741 0
-229 131 0
-229 741 0
230 -800 -228 0
-230 800 0
-230 228 0
231 -716 -747 0
-231 716 0
-231 747 0
232 -231 -741 0
-232 231 0
-232 741 0
233 -801 -230 0
-233 801 0
-233 230 0
234 -19 -752 0
-234 19 0
-234 752 0
235 -234 -34 0
-235 234 0
-235 34 0
236 -802 -233 0
-236 802 0
-236 233 0
237 -16 -14 0
-237 16 0
-237 14 0
238 -237 -766 0
-238 237 0
-238 766 0
239 -803 -236 0
-239 803 0
-239 236 0
240 -777 -16 0
-240 777 0
-240 16 0
241 -240 -3 0
-241 240 0
-241 3 0
242 -804 -239 0
-242 804 0
-242 239 0
243 -720 -6 0
-243 720 0
-243 6 0
244 -243 -13 0
-244 243 0
-244 13 0
245 -805 -242 0
-245 805 0
-245 242 0
246 -703 -695 0
-246 703 0
-246 695 0
247 -246 -730 0
-247 246 0
-247 730 0
248 -806 -245 0
-248 806 0
-248 245 0
249 -37 -706 0
-249 37 0
-249 706 0
250 -249 -747 0
-250 249 0
-250 747 0
251 -807 -248 0
-251 807 0
-251 248 0
252 -780 -723 0
-252 780 0
-252 723 0
253 -252 -747 0
-253 252 0
-253 747 0
254 -808 -251 0
-254 808 0
-254 251 0
255 -8 -4 0
-255 8 0
-255 4 0
256 -255 -27 0
-256 255 0
-256 27 0
257 -809 -254 0
-257 809 0
-257 254 0
258 -733 -5 0
-258 733 0
-258 5 0
259 -258 -721 0
-259 258 0
-259 721 0
260 -810 -257 0
-260 810 0
-260 257 0
261 -734 -4 0
-261 734 0
-261 4 0
262 -261 -41 0
-262 261 0
-262 41 0
263 -811 -260 0
-263 811 0
-263 260 0
264 -780 -12 0
-264 780 0
-264 12 0
265 -264 -716 0
-265 264 0
-265 716 0
266 -812 -263 0
-266 812 0
-266 263 0
267 -49 -34 0
-267 49 0
-267 34 0
268 -267 -15 0
-268 267 0
-268 15 0
269 -813 -266 0
-269 813 0
-269 266 0
270 -778 -5 0
-270 778 0
-270 5 0
271 -270 -34 0
-271 270 0
-271 34 0
272 -814 -269 0
-272 814 0
-272 269 0
273 -49 -7 0
-273 49 0
-273 7 0
274 -273 -718 0
-274 273 0
-274 718 0
275 -815 -272 0
-275 815 0
-275 272 0
276 -48 -788 0
-276 48 0
-276 788 0
277 -276 -816 0
-277 276 0
-277 816 0
278 -817 -275 0
-278 817 0
-278 275 0
279 -777 -11 0
-279 777 0
-279 11 0
280 -279 -38 0
-280 279 0
-280 38 0
281 -818 -278 0
-281 818 0
-281 278 0
282 -733 -706 0
-282 733 0
-282 706 0
283 -282 -15 0
-283 282 0
-283 15 0
284 -819 -281 0
-284 819 0
-284 281 0
285 -48 -23 0
-285 48 0
-285 23 0
286 -285 -24 0
-286 285 0
-286 24 0
287 -820 -284 0
-287 820 0
-287 284 0
288 -48 -20 0
-288 48 0
-288 20 0
289 -288 -738 0
-289 288 0
-289 738 0
290 -821 -287 0
-290 821 0
-290 287 0
291 -743 -698 0
-291 743 0
-291 698 0
292 -291 -11 0
-292 291 0
-292 11 0
293 -822 -290 0
-293 822 0
-293 290 0
294 -46 -29 0
-294 46 0
-294 29 0
295 -294 -3 0
-295 294 0
-295 3 0
296 -823 -293 0
-296 823 0
-296 293 0
297 -769 -29 0
-297 769 0
-297 29 0
298 -297 -716 0
-298 297 0
-298 716 0
299 -824 -296 0
-299 824 0
-299 296 0
300 -29 -5 0
-300 29 0
-300 5 0
301 -300 -825 0
-301 300 0
-301 825 0
302 -826 -299 0
-302 826 0
-302 299 0
303 -720 -7 0
-303 720 0
-303 7 0
304 -303 -3 0
-304 303 0
-304 3 0
305 -827 -302 0
-305 827 0
-305 302 0
306 -35 -4 0
-306 35 0
-306 4 0
307 -306 -697 0
-307 306 0
-307 697 0
308 -828 -305 0
-308 828 0
-308 305 0
309 -733 -705 0
-309 733 0
-309 705 0
310 -309 -703 0
-310 309 0
-310 703 0
311 -829 -308 0
-311 829 0
-311 308 0
312 -816 -24 0
-312 816 0
-312 24 0
313 -312 -711 0
-313 312 0
-313 711 0
314 -830 -311 0
-314 830 0
-314 311 0
315 -107 -816 0
-315 107 0
-315 816 0
316 -831 -314 0
-316 831 0
-316 314 0
317 -754 -22 0
-317 754 0
-317 22 0
318 -317 -718 0
-318 317 0
-318 718 0
319 -832 -316 0
-319 832 0
-319 316 0
320 -39 -22 0
-320 39 0
-320 22 0
321 -320 -30 0
-321 320 0
-321 30 0
322 -833 -319 0
-322 833 0
-322 319 0
323 -47 -710 0
-323 47 0
-323 710 0
324 -323 -39 0
-324 323 0
-324 39 0
325 -834 -322 0
-325 834 0
-325 322 0
326 -22 -1 0
-326 22 0
-326 1 0
327 -326 -30 0
-327 326 0
-327 30 0
328 -835 -325 0
-328 835 0
-328 325 0
329 -40 -17 0
-329 40 0
-329 17 0
330 -329 -718 0
-330 329 0
-330 718 0
331 -836 -328 0
-331 836 0
-331 328 0
332 -775 -36 0
-332 775 0
-332 36 0
333 -332 -27 0
-333 332 0
-333 27 0
334 -837 -331 0
-334 837 0
-334 331 0
335 -24 -16 0
-335 24 0
-335 16 0
336 -335 -38 0
-336 335 0
-336 38 0
337 -838 -334 0
-337 838 0
-337 334 0
338 -839 -747 0
-338 839 0
-338 747 0
339 -338 -734 0
-339 338 0
-339 734 0
340 -840 -337 0
-340 840 0
-340 337 0
341 -751 -1 0
-341 751 0
-341 1 0
342 -341 -33 0
-342 341 0
-342 33 0
343 -841 -340 0
-343 841 0
-343 340 0
344 -24 -700 0
-344 24 0
-344 700 0
345 -344 -38 0
-345 344 0
-345 38 0
346 -842 -343 0
-346 842 0
-346 343 0
347 -26 -700 0
-347 26 0
-347 700 0
348 -347 -8 0
-348 347 0
-348 8 0
349 -843 -346 0
-349 843 0
-349 346 0
350 -749 -695 0
-350 749 0
-350 695 0
351 -350 -15 0
-351 350 0
-351 15 0
352 -844 -349 0
-352 844 0
-352 349 0
353 -28 -17 0
-353 28 0
-353 17 0
354 -353 -734 0
-354 353 0
-354 734 0
355 -845 -352 0
-355 845 0
-355 352 0
356 -740 -846 0
-356 740 0
-356 846 0
357 -356 -9 0
-357 356 0
-357 9 0
358 -847 -355 0
-358 847 0
-358 355 0
359 -740 -20 0
-359 740 0
-359 20 0
360 -359 -38 0
-360 359 0
-360 38 0
361 -848 -358 0
-361 848 0
-361 358 0
362 -14 -2 0
-362 14 0
-362 2 0
363 -362 -760 0
-363 362 0
-363 760 0
364 -849 -361 0
-364 849 0
-364 361 0
365 -751 -713 0
-365 751 0
-365 713 0
366 -365 -45 0
-366 365 0
-366 45 0
367 -850 -364 0
-367 850 0
-367 364 0
368 -26 -18 0
-368 26 0
-368 18 0
369 -368 -6 0
-369 368 0
-369 6 0
370 -851 -367 0
-370 851 0
-370 367 0
371 -774 -25 0
-371 774 0
-371 25 0
372 -371 -825 0
-372 371 0
-372 825 0
373 -852 -370 0
-373 852 0
-373 370 0
374 -788 -713 0
-374 788 0
-374 713 0
375 -374 -11 0
-375 374 0
-375 11 0
376 -853 -373 0
-376 853 0
-376 373 0
377 -749 -777 0
-377 749 0
-377 777 0
378 -377 -839 0
-378 377 0
-378 839 0
379 -854 -376 0
-379 854 0
-379 376 0
380 -43 -25 0
-380 43 0
-380 25 0
381 -380 -855 0
-381 380 0
-381 855 0
382 -856 -379 0
-382 856 0
-382 379 0
383 -754 -1 0
-383 754 0
-383 1 0
384 -383 -9 0
-384 383 0
-384 9 0
385 -857 -382 0
-385 857 0
-385 382 0
386 -721 -10 0
-386 721 0
-386 10 0
387 -386 -741 0
-387 386 0
-387 741 0
388 -858 -385 0
-388 858 0
-388 385 0
389 -48 -699 0
-389 48 0
-389 699 0
390 -389 -19 0
-390 389 0
-390 19 0
391 -859 -388 0
-391 859 0
-391 388 0
392 -29 -743 0
-392 29 0
-392 743 0
393 -392 -730 0
-393 392 0
-393 730 0
394 -860 -391 0
-394 860 0
-394 391 0
395 -839 -26 0
-395 839 0
-395 26 0
396 -395 -10 0
-396 395 0
-396 10 0
397 -861 -394 0
-397 861 0
-397 394 0
398 -769 -36 0
-398 769 0
-398 36 0
399 -398 -8 0
-399 398 0
-399 8 0
400 -862 -397 0
-400 862 0
-400 397 0
401 -816 -22 0
-401 816 0
-401 22 0
402 -401 -730 0
-402 401 0
-402 730 0
403 -863 -400 0
-403 863 0
-403 400 0
404 -846 -698 0
-404 846 0
-404 698 0
405 -404 -769 0
-405 404 0
-405 769 0
406 -864 -403 0
-406 864 0
-406 403 0
407 -44 -19 0
-407 44 0
-407 19 0
408 -407 -730 0
-408 407 0
-408 730 0
409 -865 -406 0
-409 865 0
-409 406 0
410 -45 -29 0
-410 45 0
-410 29 0
411 -410 -793 0
-411 410 0
-411 793 0
412 -866 -409 0
-412 866 0
-412 409 0
413 -751 -25 0
-413 751 0
-413 25 0
414 -413 -816 0
-414 413 0
-414 816 0
415 -867 -412 0
-415 867 0
-415 412 0
416 -28 -699 0
-416 28 0
-416 699 0
417 -416 -49 0
-417 416 0
-417 49 0
418 -868 -415 0
-418 868 0
-418 415 0
419 -25 -700 0
-419 25 0
-419 700 0
420 -419 -734 0
-420 419 0
-420 734 0
421 -869 -418 0
-421 869 0
-421 418 0
422 -5 -695 0
-422 5 0
-422 695 0
423 -422 -751 0
-423 422 0
-423 751 0
424 -870 -421 0
-424 870 0
-424 421 0
425 -20 -1 0
-425 20 0
-425 1 0
426 -425 -23 0
-426 425 0
-426 23 0
427 -871 -424 0
-427 871 0
-427 424 0
428 -736 -16 0
-428 736 0
-428 16 0
429 -428 -38 0
-429 428 0
-429 38 0
430 -872 -427 0
-430 872 0
-430 427 0
431 -769 -763 0
-431 769 0
-431 763 0
432 -431 -22 0
-432 431 0
-432 22 0
433 -873 -430 0
-433 873 0
-433 430 0
434 -25 -9 0
-434 25 0
-434 9 0
435 -434 -3 0
-435 434 0
-435 3 0
436 -874 -433 0
-436 874 0
-436 433 0
437 -44 -825 0
-437 44 0
-437 825 0
438 -437 -781 0
-438 437 0
-438 781 0
439 -875 -436 0
-439 875 0
-439 436 0
440 -754 -25 0
-440 754 0
-440 25 0
441 -440 -706 0
-441 440 0
-441 706 0
442 -876 -439 0
-442 876 0
-442 439 0
443 -35 -778 0
-443 35 0
-443 778 0
444 -443 -30 0
-444 443 0
-444 30 0
445 -877 -442 0
-445 877 0
-445 442 0
446 -777 -716 0
-446 777 0
-446 716 0
447 -446 -31 0
-447 446 0
-447 31 0
448 -878 -445 0
-448 878 0
-448 445 0
449 -846 -17 0
-449 846 0
-449 17 0
450 -449 -734 0
-450 449 0
-450 734 0
451 -879 -448 0
-451 879 0
-451 448 0
452 -763 -9 0
-452 763 0
-452 9 0
453 -452 -741 0
-453 452 0
-453 741 0
454 -880 -451 0
-454 880 0
-454 451 0
455 -36 -12 0
-455 36 0
-455 12 0
456 -455 -21 0
-456 455 0
-456 21 0
457 -881 -454 0
-457 881 0
-457 454 0
458 -43 -33 0
-458 43 0
-458 33 0
459 -458 -23 0
-459 458 0
-459 23 0
460 -882 -457 0
-460 882 0
-460 457 0
461 -36 -698 0
-461 36 0
-461 698 0
462 -461 -45 0
-462 461 0
-462 45 0
463 -883 -460 0
-463 883 0
-463 460 0
464 -780 -846 0
-464 780 0
-464 846 0
465 -464 -19 0
-465 464 0
-465 19 0
466 -884 -463 0
-466 884 0
-466 463 0
467 -736 -4 0
-467 736 0
-467 4 0
468 -467 -7 0
-468 467 0
-468 7 0
469 -885 -466 0
-469 885 0
-469 466 0
470 -36 -725 0
-470 36 0
-470 725 0
471 -470 -747 0
-471 470 0
-471 747 0
472 -886 -469 0
-472 886 0
-472 469 0
473 -40 -25 0
-473 40 0
-473 25 0
474 -473 -736 0
-474 473 0
-474 736 0
475 -887 -472 0
-475 887 0
-475 472 0
476 -6 -2 0
-476 6 0
-476 2 0
477 -476 -721 0
-477 476 0
-477 721 0
478 -888 -475 0
-478 888 0
-478 475 0
479 -46 -42 0
-479 46 0
-479 42 0
480 -479 -50 0
-480 479 0
-480 50 0
481 -889 -478 0
-481 889 0
-481 478 0
482 -175 -12 0
-482 175 0
-482 12 0
483 -890 -481 0
-483 890 0
-483 481 0
484 -329 -816 0
-484 329 0
-484 816 0
485 -891 -483 0
-485 891 0
-485 483 0
486 -47 -16 0
-486 47 0
-486 16 0
487 -486 -736 0
-487 486 0
-487 736 0
488 -892 -485 0
-488 892 0
-488 485 0
489 -252 -788 0
-489 252 0
-489 788 0
490 -893 -488 0
-490 893 0
-490 488 0
491 -778 -777 0
-491 778 0
-491 777 0
492 -491 -30 0
-492 491 0
-492 30 0
493 -894 -490 0
-493 894 0
-493 490 0
494 -788 -17 0
-494 788 0
-494 17 0
495 -494 -46 0
-495 494 0
-495 46 0
496 -895 -493 0
-496 895 0
-496 493 0
497 -788 -698 0
-497 788 0
-497 698 0
498 -497 -19 0
-498 497 0
-498 19 0
499 -896 -496 0
-499 896 0
-499 496 0
500 -39 -14 0
-500 39 0
-500 14 0
501 -500 -45 0
-501 500 0
-501 45 0
502 -897 -499 0
-502 897 0
-502 499 0
503 -749 -10 0
-503 749 0
-503 10 0
504 -503 -793 0
-504 503 0
-504 793 0
505 -898 -502 0
-505 898 0
-505 502 0
506 -18 -7 0
-506 18 0
-506 7 0
507 -506 -3 0
-507 506 0
-507 3 0
508 -899 -505 0
-508 899 0
-508 505 0
509 -18 -699 0
-509 18 0
-509 699 0
510 -509 -711 0
-510 509 0
-510 711 0
511 -900 -508 0
-511 900 0
-511 508 0
512 -700 -696 0
-512 700 0
-512 696 0
513 -512 -763 0
-513 512 0
-513 763 0
514 -901 -511 0
-514 901 0
-514 511 0
515 -35 -31 0
-515 35 0
-515 31 0
516 -515 -3 0
-516 515 0
-516 3 0
517 -902 -514 0
-517 902 0
-517 514 0
518 -48 -7 0
-518 48 0
-518 7 0
519 -518 -37 0
-519 518 0
-519 37 0
520 -903 -517 0
-520 903 0
-520 517 0
521 -28 -14 0
-521 28 0
-521 14 0
522 -521 -747 0
-522 521 0
-522 747 0
523 -904 -520 0
-523 904 0
-523 520 0
524 -44 -695 0
-524 44 0
-524 695 0
525 -524 -17 0
-525 524 0
-525 17 0
526 -905 -523 0
-526 905 0
-526 523 0
527 -740 -10 0
-527 740 0
-527 10 0
528 -527 -697 0
-528 527 0
-528 697 0
529 -906 -526 0
-529 906 0
-529 526 0
530 -716 -738 0
-530 716 0
-530 738 0
531 -530 -778 0
-531 530 0
-531 778 0
532 -907 -529 0
-532 907 0
-532 529 0
533 -775 -22 0
-533 775 0
-533 22 0
534 -533 -730 0
-534 533 0
-534 730 0
535 -908 -532 0
-535 908 0
-535 532 0
536 -276 -757 0
-536 276 0
-536 757 0
537 -909 -535 0
-537 909 0
-537 535 0
538 -20 -19 0
-538 20 0
-538 19 0
539 -538 -781 0
-539 538 0
-539 781 0
540 -910 -537 0
-540 910 0
-540 537 0
541 -723 -721 0
-541 723 0
-541 721 0
542 -541 -41 0
-542 541 0
-542 41 0
543 -911 -540 0
-543 911 0
-543 540 0
544 -42 -36 0
-544 42 0
-544 36 0
545 -544 -721 0
-545 544 0
-545 721 0
546 -912 -543 0
-546 912 0
-546 543 0
547 -35 -26 0
-547 35 0
-547 26 0
548 -547 -697 0
-548 547 0
-548 697 0
549 -913 -546 0
-549 913 0
-549 546 0
550 -816 -754 0
-550 816 0
-550 754 0
551 -550 -855 0
-551 550 0
-551 855 0
552 -914 -549 0
-552 914 0
-552 549 0
553 -780 -16 0
-553 780 0
-553 16 0
554 -553 -839 0
-554 553 0
-554 839 0
555 -915 -552 0
-555 915 0
-555 552 0
556 -47 -31 0
-556 47 0
-556 31 0
557 -556 -730 0
-557 556 0
-557 730 0
558 -916 -555 0
-558 916 0
-558 555 0
559 -45 -733 0
-559 45 0
-559 733 0
560 -559 -721 0
-560 559 0
-560 721 0
561 -917 -558 0
-561 917 0
-561 558 0
562 -766 -706 0
-562 766 0
-562 706 0
563 -562 -32 0
-563 562 0
-563 32 0
564 -918 -561 0
-564 918 0
-564 561 0
565 -21 -1 0
-565 21 0
-565 1 0
566 -565 -855 0
-566 565 0
-566 855 0
567 -919 -564 0
-567 919 0
-567 564 0
568 -743 -710 0
-568 743 0
-568 710 0
569 -568 -741 0
-569 568 0
-569 741 0
570 -920 -567 0
-570 920 0
-570 567 0
571 -550 -697 0
-571 550 0
-571 697 0
572 -921 -570 0
-572 921 0
-572 570 0
573 -825 -16 0
-573 825 0
-573 16 0
574 -573 -781 0
-574 573 0
-574 781 0
575 -922 -572 0
-575 922 0
-575 572 0
576 -775 -747 0
-576 775 0
-576 747 0
577 -576 -22 0
-577 576 0
-577 22 0
578 -923 -575 0
-578 923 0
-578 575 0
579 -723 -2 0
-579 723 0
-579 2 0
580 -579 -41 0
-580 579 0
-580 41 0
581 -924 -578 0
-581 924 0
-581 578 0
582 -19 -17 0
-582 19 0
-582 17 0
583 -582 -21 0
-583 582 0
-583 21 0
584 -925 -581 0
-584 925 0
-584 581 0
585 -50 -708 0
-585 50 0
-585 708 0
586 -585 -22 0
-586 585 0
-586 22 0
587 -926 -584 0
-587 926 0
-587 584 0
588 -766 -705 0
-588 766 0
-588 705 0
589 -588 -22 0
-589 588 0
-589 22 0
590 -927 -587 0
-590 927 0
-590 587 0
591 -839 -32 0
-591 839 0
-591 32 0
592 -591 -718 0
-592 591 0
-592 718 0
593 -928 -590 0
-593 928 0
-593 590 0
594 -720 -733 0
-594 720 0
-594 733 0
595 -594 -7 0
-595 594 0
-595 7 0
596 -929 -593 0
-596 929 0
-596 593 0
597 -825 -706 0
-597 825 0
-597 706 0
598 -597 -781 0
-598 597 0
-598 781 0
599 -930 -596 0
-599 930 0
-599 596 0
600 -825 -855 0
-600 825 0
-600 855 0
601 -600 -24 0
-601 600 0
-601 24 0
602 -931 -599 0
-602 931 0
-602 599 0
603 -706 -703 0
-603 706 0
-603 703 0
604 -603 -793 0
-604 603 0
-604 793 0
605 -932 -602 0
-605 932 0
-605 602 0
606 -45 -846 0
-606 45 0
-606 846 0
607 -606 -793 0
-607 606 0
-607 793 0
608 -933 -605 0
-608 933 0
-608 605 0
609 -19 -733 0
-609 19 0
-609 733 0
610 -609 -766 0
-610 609 0
-610 766 0
611 -934 -608 0
-611 934 0
-611 608 0
612 -754 -696 0
-612 754 0
-612 696 0
613 -612 -12 0
-613 612 0
-613 12 0
614 -935 -611 0
-614 935 0
-614 611 0
615 -723 -18 0
-615 723 0
-615 18 0
616 -615 -36 0
-616 615 0
-616 36 0
617 -936 -614 0
-617 936 0
-617 614 0
618 -26 -5 0
-618 26 0
-618 5 0
619 -618 -716 0
-619 618 0
-619 716 0
620 -937 -617 0
-620 937 0
-620 617 0
621 -736 -738 0
-621 736 0
-621 738 0
622 -621 -23 0
-622 621 0
-622 23 0
623 -938 -620 0
-623 938 0
-623 620 0
624 -774 -37 0
-624 774 0
-624 37 0
625 -624 -718 0
-625 624 0
-625 718 0
626 -939 -623 0
-626 939 0
-626 623 0
627 -721 -7 0
-627 721 0
-627 7 0
628 -627 -730 0
-628 627 0
-628 730 0
629 -940 -626 0
-629 940 0
-629 626 0
630 -44 -751 0
-630 44 0
-630 751 0
631 -630 -23 0
-631 630 0
-631 23 0
632 -941 -629 0
-632 941 0
-632 629 0
633 -47 -743 0
-633 47 0
-633 743 0
634 -633 -781 0
-634 633 0
-634 781 0
635 -942 -632 0
-635 942 0
-635 632 0
636 -46 -32 0
-636 46 0
-636 32 0
637 -636 -730 0
-637 636 0
-637 730 0
638 -943 -635 0
-638 943 0
-638 635 0
639 -700 -698 0
-639 700 0
-639 698 0
640 -639 -17 0
-640 639 0
-640 17 0
641 -944 -638 0
-641 944 0
-641 638 0
642 -50 -27 0
-642 50 0
-642 27 0
643 -642 -15 0
-643 642 0
-643 15 0
644 -945 -641 0
-644 945 0
-644 641 0
645 -839 -20 0
-645 839 0
-645 20 0
646 -645 -730 0
-646 645 0
-646 730 0
647 -946 -644 0
-647 946 0
-647 644 0
648 -29 -777 0
-648 29 0
-648 777 0
649 -648 -9 0
-649 648 0
-649 9 0
650 -947 -647 0
-650 947 0
-650 647 0
651 -760 -21 0
-651 760 0
-651 21 0
652 -651 -718 0
-652 651 0
-652 718 0
653 -948 -650 0
-653 948 0
-653 650 0
654 -720 -698 0
-654 720 0
-654 698 0
655 -654 -24 0
-655 654 0
-655 24 0
656 -949 -653 0
-656 949 0
-656 653 0
657 -23 -2 0
-657 23 0
-657 2 0
658 -657 -15 0
-658 657 0
-658 15 0
659 -950 -656 0
-659 950 0
-659 656 0
660 -49 -43 0
-660 49 0
-660 43 0
661 -660 -3 0
-661 660 0
-661 3 0
662 -951 -659 0
-662 951 0
-662 659 0
663 -20 -713 0
-663 20 0
-663 713 0
664 -663 -816 0
-664 663 0
-664 816 0
665 -952 -662 0
-665 952 0
-665 662 0
666 -839 -12 0
-666 839 0
-666 12 0
667 -666 -775 0
-667 666 0
-667 775 0
668 -953 -665 0
-668 953 0
-668 665 0
669 -27 -777 0
-669 27 0
-669 777 0
670 -669 -793 0
-670 669 0
-670 793 0
671 -954 -668 0
-671 954 0
-671 668 0
672 -43 -736 0
-672 43 0
-672 736 0
673 -672 -751 0
-673 672 0
-673 751 0
674 -955 -671 0
-674 955 0
-674 671 0
675 -725 -716 0
-675 725 0
-675 716 0
676 -675 -37 0
-676 675 0
-676 37 0
677 -956 -674 0
-677 956 0
-677 674 0
678 -29 -713 0
-678 29 0
-678 713 0
679 -678 -711 0
-679 678 0
-679 711 0
680 -957 -677 0
-680 957 0
-680 677 0
681 -44 -706 0
-681 44 0
-681 706 0
682 -681 -721 0
-682 681 0
-682 721 0
683 -958 -680 0
-683 958 0
-683 680 0
684 -44 -18 0
-684 44 0
-684 18 0
685 -684 -740 0
-685 684 0
-685 740 0
686 -959 -683 0
-686 959 0
-686 683 0
687 -48 -734 0
-687 48 0
-687 734 0
688 -687 -711 0
-688 687 0
-688 711 0
689 -960 -686 0
-689 960 0
-689 686 0
690 -757 -747 0
-690 757 0
-690 747 0
691 -690 -711 0
-691 690 0
-691 711 0
692 -961 -689 0
-692 961 0
-692 689 0
693 -591 -697 0
-693 591 0
-693 697 0
694 -962 -692 0
-694 962 0
-694 692 0
-695 -2 0
695 2 0
-696 -1 0
696 1 0
-697 -3 0
697 3 0
-698 -5 0
698 5 0
-699 -4 0
699 4 0
-700 -6 0
700 6 0
-701 -54 0
701 54 0
-702 -52 0
702 52 0
-703 -8 0
703 8 0
-704 -57 0
704 57 0
-705 -10 0
705 10 0
-706 -11 0
706 11 0
-707 -60 0
707 60 0
-708 -12 0
708 12 0
-709 -63 0
709 63 0
-710 -14 0
710 14 0
-711 -15 0
711 15 0
-712 -66 0
712 66 0
-713 -16 0
713 16 0
-714 -69 0
714 69 0
-715 -72 0
715 72 0
-716 -21 0
716 21 0
-717 -75 0
717 75 0
-718 -23 0
718 23 0
-719 -78 0
719 78 0
-720 -26 0
720 26 0
-721 -27 0
721 27 0
-722 -81 0
722 81 0
-723 -28 0
723 28 0
-724 -84 0
724 84 0
-725 -29 0
725 29 0
-726 -87 0
726 87 0
-727 -90 0
727 90 0
-728 -93 0
728 93 0
-729 -96 0
729 96 0
-730 -33 0
730 33 0
-731 -99 0
731 99 0
-732 -102 0
732 102 0
-733 -17 0
733 17 0
-734 -22 0
734 22 0
-735 -105 0
735 105 0
-736 -35 0
736 35 0
-737 -108 0
737 108 0
-738 -19 0
738 19 0
-739 -111 0
739 111 0
-740 -37 0
740 37 0
-741 -38 0
741 38 0
-742 -114 0
742 114 0
-743 -20 0
743 20 0
-744 -117 0
744 117 0
-745 -120 0
745 120 0
-746 -123 0
746 123 0
-747 -13 0
747 13 0
-748 -126 0
748 126 0
-749 -40 0
749 40 0
-750 -129 0
750 129 0
-751 -39 0
751 39 0
-752 -7 0
752 7 0
-753 -132 0
753 132 0
-754 -42 0
754 42 0
-755 -135 0
755 135 0
-756 -138 0
756 138 0
-757 -34 0
757 34 0
-758 -141 0
758 141 0
-759 -144 0
759 144 0
-760 -41 0
760 41 0
-761 -146 0
761 146 0
-762 -149 0
762 149 0
-763 -44 0
763 44 0
-764 -152 0
764 152 0
-765 -155 0
765 155 0
-766 -45 0
766 45 0
-767 -158 0
767 158 0
-768 -161 0
768 161 0
-769 -46 0
769 46 0
-770 -164 0
770 164 0
-771 -167 0
771 167 0
-772 -170 0
772 170 0
-773 -173 0
773 173 0
-774 -48 0
774 48 0
-775 -49 0
775 49 0
-776 -176 0
776 176 0
-777 -25 0
777 25 0
-778 -32 0
778 32 0
-779 -179 0
779 179 0
-780 -47 0
780 47 0
-781 -24 0
781 24 0
-782 -182 0
782 182 0
-783 -185 0
783 185 0
-784 -188 0
784 188 0
-785 -191 0
785 191 0
-786 -194 0
786 194 0
-787 -197 0
787 197 0
-788 -18 0
788 18 0
-789 -200 0
789 200 0
-790 -203 0
790 203 0
-791 -206 0
791 206 0
-792 -209 0
792 209 0
-793 -30 0
793 30 0
-794 -212 0
794 212 0
-795 -215 0
795 215 0
-796 -218 0
796 218 0
-797 -221 0
797 221 0
-798 -224 0
798 224 0
-799 -227 0
799 227 0
-800 -229 0
800 229 0
-801 -232 0
801 232 0
-802 -235 0
802 235 0
-803 -238 0
803 238 0
-804 -241 0
804 241 0
-805 -244 0
805 244 0
-806 -247 0
806 247 0
-807 -250 0
807 250 0
-808 -253 0
808 253 0
-809 -256 0
809 256 0
-810 -259 0
810 259 0
-811 -262 0
811 262 0
-812 -265 0
812 265 0
-813 -268 0
813 268 0
-814 -271 0
814 271 0
-815 -274 0
815 274 0
-816 -50 0
816 50 0
-817 -277 0
817 277 0
-818 -280 0
818 280 0
-819 -283 0
819 283 0
-820 -286 0
820 286 0
-821 -289 0
821 289 0
-822 -292 0
822 292 0
-823 -295 0
823 295 0
-824 -298 0
824 298 0
-825 -31 0
825 31 0
-826 -301 0
826 301 0
-827 -304 0
827 304 0
-828 -307 0
828 307 0
-829 -310 0
829 310 0
-830 -313 0
830 313 0
-831 -315 0
831 315 0
-832 -318 0
832 318 0
-833 -321 0
833 321 0
-834 -324 0
834 324 0
-835 -327 0
835 327 0
-836 -330 0
836 330 0
-837 -333 0
837 333 0
-838 -336 0
838 336 0
-839 -43 0
839 43 0
-840 -339 0
840 339 0
-841 -342 0
841 342 0
-842 -345 0
842 345 0
-843 -348 0
843 348 0
-844 -351 0
844 351 0
-845 -354 0
845 354 0
-846 -36 0
846 36 0
-847 -357 0
847 357 0
-848 -360 0
848 360 0
-849 -363 0
849 363 0
-850 -366 0
850 366 0
-851 -369 0
851 369 0
-852 -372 0
852 372 0
-853 -375 0
853 375 0
-854 -378 0
854 378 0
-855 -9 0
855 9 0
-856 -381 0
856 381 0
-857 -384 0
857 384 0
-858 -387 0
858 387 0
-859 -390 0
859 390 0
-860 -393 0
860 393 0
-861 -396 0
861 396 0
-862 -399 0
862 399 0
-863 -402 0
863 402 0
-864 -405 0
864 405 0
-865 -408 0
865 408 0
-866 -411 0
866 411 0
-867 -414 0
867 414 0
-868 -417 0
868 417 0
-869 -420 0
869 420 0
-870 -423 0
870 423 0
-871 -426 0
871 426 0
-872 -429 0
872 429 0
-873 -432 0
873 432 0
-874 -435 0
874 435 0
-875 -438 0
875 438 0
-876 -441 0
876 441 0
-877 -444 0
877 444 0
-878 -447 0
878 447 0
-879 -450 0
879 450 0
-880 -453 0
880 453 0
-881 -456 0
881 456 0
-882 -459 0
882 459 0
-883 -462 0
883 462 0
-884 -465 0
884 465 0
-885 -468 0
885 468 0
-886 -471 0
886 471 0
-887 -474 0
887 474 0
-888 -477 0
888 477 0
-889 -480 0
889 480 0
-890 -482 0
890 482 0
-891 -484 0
891 484 0
-892 -487 0
892 487 0
-893 -489 0
893 489 0
-894 -492 0
894 492 0
-895 -495 0
895 495 0
-896 -498 0
896 498 0
-897 -501 0
897 501 0
-898 -504 0
898 504 0
-899 -507 0
899 507 0
-900 -510 0
900 510 0
-901 -513 0
901 513 0
-902 -516 0
902 516 0
-903 -519 0
903 519 0
-904 -522 0
904 522 0
-905 -525 0
905 525 0
-906 -528 0
906 528 0
-907 -531 0
907 531 0
-908 -534 0
908 534 0
-909 -536 0
909 536 0
-910 -539 0
910 539 0
-911 -542 0
911 542 0
-912 -545 0
912 545 0
-913 -548 0
913 548 0
-914 -551 0
914 551 0
-915 -554 0
915 554 0
-916 -557 0
916 557 0
-917 -560 0
917 560 0
-918 -563 0
918 563 0
-919 -566 0
919 566 0
-920 -569 0
920 569 0
-921 -571 0
921 571 0
-922 -574 0
922 574 0
-923 -577 0
923 577 0
-924 -580 0
924 580 0
-925 -583 0
925 583 0
-926 -586 0
926 586 0
-927 -589 0
927 589 0
-928 -592 0
928 592 0
-929 -595 0
929 595 0
-930 -598 0
930 598 0
-931 -601 0
931 601 0
-932 -604 0
932 604 0
-933 -607 0
933 607 0
-934 -610 0
934 610 0
-935 -613 0
935 613 0
-936 -616 0
936 616 0
-937 -619 0
937 619 0
-938 -622 0
938 622 0
-939 -625 0
939 625 0
-940 -628 0
940 628 0
-941 -631 0
941 631 0
-942 -634 0
942 634 0
-943 -637 0
943 637 0
-944 -640 0
944 640 0
-945 -643 0
945 643 0
-946 -646 0
946 646 0
-947 -649 0
947 649 0
-948 -652 0
948 652 0
-949 -655 0
949 655 0
-950 -658 0
950 658 0
-951 -661 0
951 661 0
-952 -664 0
952 664 0
-953 -667 0
953 667 0
-954 -670 0
954 670 0
-955 -673 0
955 673 0
-956 -676 0
956 676 0
-957 -679 0
957 679 0
-958 -682 0
958 682 0
-959 -685 0
959 685 0
-960 -688 0
960 688 0
-961 -691 0
961 691 0
-962 -693 0
962 693 0
694 0
